Read MPS format model from file dat/rmp/DER_48_4096_20.mps
Reading time = 0.22 seconds
: 4144 rows, 14480 columns, 624270 nonzeros
Gurobi Optimizer version 9.0.0 build v9.0.0rc2 (linux64)
Optimize a model with 4144 rows, 14480 columns and 624270 nonzeros
Model fingerprint: 0x29853cc1
Coefficient statistics:
  Matrix range     [3e-05, 1e+01]
  Objective range  [4e-01, 1e+03]
  Bounds range     [2e+04, 2e+04]
  RHS range        [1e+00, 1e+00]
Ordering time: 0.00s

Barrier statistics:
 AA' NZ     : 1.873e+05
 Factor NZ  : 2.327e+05 (roughly 10 MBytes of memory)
 Factor Ops : 1.367e+07 (less than 1 second per iteration)
 Threads    : 1

                  Objective                Residual
Iter       Primal          Dual         Primal    Dual     Compl     Time
   0   8.75119008e+08 -9.53031468e+07  6.57e+06 2.43e-02  7.43e+05     0s
   1   2.85715479e+07 -1.80885221e+07  1.90e+05 2.73e-12  2.27e+04     0s
   2   2.18430848e+06 -6.81709896e+06  1.37e+04 1.82e-12  2.02e+03     0s
   3   5.78085086e+04 -3.14245179e+06  2.35e+02 1.82e-12  2.38e+02     0s
   4   1.24689995e+04 -2.89098964e+04  6.61e-11 1.82e-12  2.85e+00     0s
   5   1.23749203e+04  7.58423080e+03  2.57e-10 2.73e-12  3.30e-01     0s
   6   1.22876963e+04  1.15036445e+04  1.67e-10 4.55e-12  5.40e-02     0s
   7   1.21970059e+04  1.19117190e+04  1.22e-10 1.82e-12  1.96e-02     0s
   8   1.21544309e+04  1.19677674e+04  1.14e-10 1.82e-12  1.28e-02     0s
   9   1.20916257e+04  1.20110912e+04  3.19e-10 1.82e-12  5.54e-03     0s
  10   1.20669048e+04  1.20238639e+04  2.17e-10 1.82e-12  2.96e-03     1s
  11   1.20503916e+04  1.20322440e+04  3.56e-10 1.82e-12  1.25e-03     1s
  12   1.20455348e+04  1.20349285e+04  4.17e-10 1.82e-12  7.30e-04     1s
  13   1.20429975e+04  1.20375679e+04  1.01e-09 1.82e-12  3.74e-04     1s
  14   1.20407992e+04  1.20392395e+04  1.02e-09 1.82e-12  1.07e-04     1s
  15   1.20403825e+04  1.20398721e+04  1.33e-09 3.64e-12  3.51e-05     1s
  16   1.20402513e+04  1.20400337e+04  2.40e-09 1.82e-12  1.50e-05     1s
  17   1.20401854e+04  1.20400718e+04  1.09e-09 3.64e-12  7.82e-06     1s
  18   1.20401391e+04  1.20400910e+04  4.24e-09 1.82e-12  3.31e-06     1s
  19   1.20401228e+04  1.20401046e+04  5.05e-09 1.82e-12  1.25e-06     1s
  20   1.20401142e+04  1.20401072e+04  8.76e-09 1.82e-12  4.82e-07     1s
  21   1.20401101e+04  1.20401080e+04  2.54e-08 1.82e-12  1.41e-07     1s
  22   1.20401087e+04  1.20401082e+04  2.58e-07 1.82e-12  3.11e-08     1s
  23   1.20401084e+04  1.20401083e+04  6.74e-07 3.64e-12  6.04e-09     1s
  24   1.20401084e+04  1.20401084e+04  3.01e-07 2.73e-12  1.46e-10     1s

Barrier solved model in 24 iterations and 1.11 seconds
Optimal objective 1.20401084e+04

Solve time: 1.11640929
Barrier iterations: 24
